ejemplos_dzn/memory_optimizable.dzn
TERM = { '.', s0, s1, s2, s3};
null = '.';
s = 5;
n = 3;
min = 4;
N0 = 0;
ZEROARYOP = {};
zeroout = [];
zerogas = [];
zerosz =  [];
zerolb =  [];
zeroub =  [];
N1 = 0;
UNARYOP = {};
unin =  [];
unout = [];
ungas = [];
unsz =  [];
unlb =  [];
unub =  [];
N2 = 0;
BINARYOP = {};
binin1 =  [];
binin2 =  [];
binout = [];
bincomm = [];
bingas = [];
binsz =  [];
binlb =  [];
binub =  [];
NPUSH = 2;
PUSHOP = { PUSH_0, PUSH_1 };
pushout = [ s2, s3 ];
pushgas = [ 3, 3 ];
pushsz = [ 2, 2 ];
pushlb = [ 1, 1 ];
pushub = [ 5, 5 ];
NSTORE = 2;
STOROP = { MSTORE_0, MSTORE_1 };
storin1 = [s2, s3 ];
storin2 = [s1, s0 ];
storlb = [ 1, 1 ];
storub = [ 5, 5 ];
DUP_ENUM = { DUP1, DUP2};
SWAP_ENUM = { SWAP1, SWAP2};
startstack = [ s0, s1, null ];
endstack = [ null, null, null ];
before = [  ];
after = [  ];
memory_dependences = []
store_dependences = []
