ejemplos_results/memory_optimizable.txt
value = 4;
fgas = [3, 3, 3, 3, -2147483646];
fsize = [2, 1, 2, 1, -2147483646];
states = 
[|  s0,  s1, '.'
 |  s3,  s0,  s1
 |  s1, '.', '.'
 |  s2,  s1, '.'
 | '.', '.', '.'
 | '.', '.', '.'
 |];
program = [P(PUSH_1), ST(MSTORE_1), P(PUSH_0), ST(MSTORE_0), NOP];
% time elapsed: 0.70 s
----------
==========
% time elapsed: 0.70 s
